161 5
10 10 10 10 10 

0 0 0 0 0 0 5 2 24 46 58 80 
0 0 0 0 0 0 3 3 8 10 
4 1 0 0 0 3 4 22 19 4 110 
9 6 0 0 0 6 1 5 
4 9 0 0 0 7 1 6 
4 8 0 0 0 2 1 7 
8 5 0 0 0 6 1 9 
2 6 0 0 0 4 1 9 
9 4 0 0 0 5 1 11 
4 3 0 0 0 4 2 19 13 
10 3 0 0 0 5 1 12 
6 7 0 0 0 4 1 13 
4 3 0 0 0 3 2 21 14 
1 7 0 0 0 6 1 15 
3 6 0 0 0 7 1 16 
7 5 0 0 0 2 1 17 
4 3 0 0 0 7 1 18 
3 5 0 0 0 10 1 20 
3 3 0 0 0 5 1 20 
5 8 0 0 0 7 1 23 
5 4 0 0 0 4 1 23 
10 4 0 0 0 3 1 23 
0 0 0 0 0 0 1 126 
0 0 0 0 0 0 4 25 38 43 44 
3 1 0 0 0 1 1 26 
8 7 0 0 0 6 1 27 
4 8 0 0 0 5 2 42 28 
9 6 0 0 0 7 1 29 
3 5 0 0 0 5 1 30 
1 5 0 0 0 4 1 31 
8 6 0 0 0 5 2 41 32 
3 5 0 0 0 3 1 33 
3 4 0 0 0 4 1 34 
3 4 0 0 0 3 1 35 
7 3 0 0 0 4 1 36 
7 8 0 0 0 9 1 37 
4 4 0 0 0 6 1 39 
6 5 0 0 0 6 1 39 
9 5 0 0 0 4 2 40 110 
2 3 0 0 0 8 1 45 
4 6 0 0 0 3 1 45 
7 8 0 0 0 6 1 45 
4 4 0 0 0 6 1 45 
8 3 0 0 0 5 1 45 
0 0 0 0 0 0 1 126 
0 0 0 0 0 0 2 47 48 
1 0 1 0 0 0 3 51 49 90 
7 0 6 0 0 0 2 51 50 
2 0 4 0 0 0 1 50 
4 0 7 0 0 0 1 52 
10 0 2 0 0 0 1 52 
1 0 6 0 0 0 1 53 
3 0 5 0 0 0 2 56 54 
5 0 5 0 0 0 1 55 
7 0 6 0 0 0 1 57 
9 0 8 0 0 0 1 57 
0 0 0 0 0 0 2 102 114 
0 0 0 0 0 0 3 59 62 65 
5 1 0 0 0 2 1 60 
4 6 0 0 0 6 1 61 
3 4 0 0 0 10 1 63 
6 2 0 0 0 5 2 67 66 
2 5 0 0 0 5 1 64 
3 10 0 0 0 5 2 71 67 
1 5 0 0 0 2 2 71 67 
10 5 0 0 0 8 2 71 69 
7 7 0 0 0 4 1 68 
10 4 0 0 0 7 1 69 
5 3 0 0 0 5 1 70 
10 7 0 0 0 6 2 78 72 
4 8 0 0 0 3 1 72 
9 6 0 0 0 6 1 73 
10 4 0 0 0 6 1 74 
2 3 0 0 0 4 1 75 
8 4 0 0 0 5 1 76 
4 4 0 0 0 4 2 77 108 
6 3 0 0 0 3 1 79 
2 9 0 0 0 4 1 79 
0 0 0 0 0 0 1 126 
0 0 0 0 0 0 5 81 97 98 99 100 
9 1 0 0 1 0 1 82 
1 3 0 0 1 0 1 83 
9 6 0 0 2 0 1 84 
9 4 0 0 7 0 2 96 85 
10 6 0 0 7 0 1 86 
10 7 0 0 5 0 1 87 
6 8 0 0 8 0 1 88 
7 4 0 0 5 0 1 89 
9 3 0 0 8 0 1 90 
9 4 0 0 6 0 1 91 
10 9 0 0 3 0 1 92 
6 6 0 0 5 0 1 93 
3 6 0 0 2 0 1 94 
4 2 0 0 3 0 1 95 
10 6 0 0 5 0 1 101 
9 3 0 0 2 0 1 101 
9 4 0 0 5 0 1 101 
5 6 0 0 10 0 1 101 
3 5 0 0 6 0 1 101 
2 7 0 0 9 0 1 101 
0 0 0 0 0 0 1 126 
0 0 0 0 0 0 3 103 109 112 
8 0 1 0 0 0 1 104 
10 0 9 0 0 0 1 105 
8 0 8 0 0 0 1 106 
2 0 3 0 0 0 1 107 
7 0 4 0 0 0 1 108 
8 0 5 0 0 0 1 110 
3 0 6 0 0 0 1 111 
8 0 7 0 0 0 1 113 
8 0 2 0 0 0 1 113 
2 0 5 0 0 0 1 113 
0 0 0 0 0 0 1 126 
0 0 0 0 0 0 2 115 116 
4 0 1 0 0 0 1 117 
7 0 4 0 0 0 1 117 
3 0 7 0 0 0 2 119 118 
9 0 5 0 0 0 1 120 
10 0 8 0 0 0 1 120 
7 0 7 0 0 0 2 124 121 
10 0 4 0 0 0 1 122 
3 0 6 0 0 0 1 123 
1 0 3 0 0 0 1 125 
1 0 5 0 0 0 1 125 
0 0 0 0 0 0 1 126 
0 0 0 0 0 0 1 127 
10 0 0 1 0 0 1 128 
1 0 0 8 0 0 2 133 129 
6 0 0 4 0 0 2 132 130 
9 0 0 8 0 0 1 131 
4 0 0 7 0 0 2 136 134 
9 0 0 6 0 0 2 136 135 
2 0 0 3 0 0 1 134 
9 0 0 3 0 0 1 135 
6 0 0 7 0 0 1 137 
6 0 0 3 0 0 1 137 
0 0 0 0 0 0 1 138 
0 0 0 0 0 0 3 139 140 144 
8 0 0 0 0 1 2 148 141 
4 0 0 0 0 7 2 148 143 
9 0 0 0 0 5 1 142 
1 0 0 0 0 4 1 143 
10 0 0 0 0 6 1 145 
3 0 0 0 0 4 1 145 
4 0 0 0 0 6 1 146 
8 0 0 0 0 6 1 147 
5 0 0 0 0 6 1 149 
2 0 0 0 0 5 1 149 
0 0 0 0 0 0 1 150 
0 0 0 0 0 0 2 151 152 
3 0 0 0 1 0 2 154 153 
1 0 0 0 6 0 2 154 153 
4 0 0 0 5 0 2 160 155 
8 0 0 0 5 0 1 155 
8 0 0 0 4 0 1 156 
5 0 0 0 7 0 1 157 
3 0 0 0 5 0 1 158 
1 0 0 0 7 0 1 159 
2 0 0 0 5 0 1 161 
1 0 0 0 5 0 1 161 
0 0 0 0 0 0 0 
